20	2	3
9	8	21	37	34	
0	0	0	4	1	5	10	5	9	9	2	3	4	5	8	9	12	14	19
19	2	3	1	5	1	8	5	9	2	16	15
18	2	3	7	4	6	8	7	3	3	7	17	6
19	3	3	3	6	9	10	1	3	3	18	6	17
15	3	3	5	9	4	7	4	5	3	15	11	10
11	3	2	10	8	6	5	8	10	1	20
16	3	3	4	9	5	4	6	9	1	16
9	3	3	3	3	3	8	10	9	1	20
7	3	3	1	3	5	9	2	5	1	17
5	2	2	1	6	3	5	3	7	1	13
5	2	2	10	3	4	5	7	2	1	20
8	3	3	5	1	10	9	5	6	1	20
14	3	3	7	7	8	9	5	8	1	20
10	3	3	8	5	10	2	3	1	1	20
15	2	2	7	3	7	10	7	10	1	20
16	3	3	6	7	2	10	1	9	1	18
6	3	3	1	5	9	1	4	3	1	20
19	2	2	6	10	10	4	9	4	1	20
12	2	2	1	6	8	1	8	10	1	20
0	0	0	1	4	3	8	3	10	0
